12
48
874
1074
954
1008
961
970
1071
844
1145
847
848
2027
87	95
577	497
74	152
99	59
124	111
711	629
925	859
118	141
200	154
143	193
280	299
133	175
647	672
626	608
744	776
219	263
302	320
657	645
887	821
762	859
950	1043
615	536
734	828
539	474
284	228
755	728
991	931
852	923
885	856
859	893
867	897
681	632
662	677
807	799
543	638
177	222
529	624
956	971
978	1010
558	468
190	91
72	123
25	122
871	946
327	385
192	208
109	158
924	969
